(declare-const a Real)
(declare-const b Real)
(declare-const c Real)
(assert (= (* a b c) 1))
(assert (> a 0))
(assert (> b 0))
(assert (> c 0))
(assert (not (<= (+ (* -231649574912 (pow b 4)) (* -177694048256 (pow a 4)) (* (pow (+ (* 1704886272 (pow a 4)) (* 1704886272 (pow b 2)) (* 10229317632 (pow a 2) (pow b 2))) -1) (pow (+ (* 1704886272 (pow a 4)) (* 1704886272 (pow b 3)) (* 10229317632 (pow a 2) (pow b 2))) 2)) (* -463856467968 (pow a (pow 3 -1)) (pow b (/ 11 3))) (* -231928233984 (pow a (/ 10 3)) (pow b (/ 2 3))) (* 259860856832 b (pow a 3)) (* 831628378112 a (pow b 3))) 0)))
(check-sat)
(get-model)
(exit)